c --- [ banner ] -------------------------------------------------------------
c 
c CaDiCaL SAT Solver
c Copyright (c) 2016-2023 A. Biere, M. Fleury, N. Froleyks, K. Fazekas, F. Pollitt
c 
c Version 1.9.5
c g++ (Ubuntu 11.4.0-1ubuntu1~22.04) 11.4.0 -Wall -Wextra -O3 -DNDEBUG -static
c Thu Mar 7 06:16:21 CET 2024 Linux pc101447 6.5.0-17-generic x86_64
c 
c --- [ limit ] --------------------------------------------------------------
c 
c setting time limit to 3600 seconds real time (due to '-t 3600')
c 
c --- [ parsing input ] ------------------------------------------------------
c 
c reading DIMACS file from '/home/oliveras/SAT-comp-2023//19004c7d629f7e6e83c6e1d7a9a768a9-6s166.cnf'
c opening file to read '/home/oliveras/SAT-comp-2023//19004c7d629f7e6e83c6e1d7a9a768a9-6s166.cnf'
c found 'p cnf 5448 15994' header
c parsed 15994 clauses in 0.01 seconds process time
c 
c --- [ options ] ------------------------------------------------------------
c 
c   --seed=1                       (different from default '0')
c 
c --- [ solving ] ------------------------------------------------------------
c 
c time measured in process time since initialization
c 
c  seconds  reductions  redundant  irredundant
c         MB    restarts       trail     variables
c          level   conflicts       glue       remaining
c 
c *  0.01  3  0 0   0    0    0  0% 0 15993 5446 100%
c {  0.02  3  0 0   0    0    0  0% 0 15993 5446 100%
c i  0.03  4 71 0   9  192  159 68% 3 15993 5443 100%
c i  0.03  4 71 0   9  196  162 69% 3 15993 5440 100%
c i  0.03  4 70 0   9  200  165 69% 3 15993 5437 100%
c i  0.03  4 70 0   9  204  168 69% 3 15993 5434 100%
c i  0.03  4 70 0   9  208  171 70% 3 15993 5431 100%
c i  0.03  4 69 0   9  212  174 70% 3 15993 5428 100%
c i  0.03  4 69 0   9  216  177 71% 3 15993 5425 100%
c i  0.03  4 68 0   9  220  180 71% 3 15993 5422 100%
c i  0.03  4 68 0   9  224  183 71% 3 15993 5419 99%
c i  0.03  4 68 0   9  228  186 71% 3 15993 5416 99%
c i  0.03  4 67 0   9  232  189 72% 3 15993 5413 99%
c i  0.03  4 67 0   9  236  192 72% 3 15993 5410 99%
c i  0.03  4 66 0   9  240  195 72% 3 15993 5407 99%
c i  0.03  4 66 0   9  244  198 73% 3 15993 5404 99%
c -  0.04  4 65 1   9  301  186 72% 2 15879 5404 99%
c i  0.04  4 65 1   9  303  187 72% 2 15879 5337 98%
c i  0.04  4 66 1   9  323  198 73% 2 15879 5334 98%
c i  0.04  4 66 1   9  325  199 73% 2 15879 5316 98%
c 
c  seconds  reductions  redundant  irredundant
c         MB    restarts       trail     variables
c          level   conflicts       glue       remaining
c 
c i  0.04  4 66 1   9  327  200 73% 2 15879 5313 98%
c i  0.04  4 66 1   9  329  201 73% 2 15879 5310 97%
c i  0.04  4 66 1   9  331  202 74% 2 15879 5307 97%
c i  0.04  4 66 1   9  333  203 74% 2 15879 5304 97%
c i  0.04  4 66 1   9  335  204 74% 2 15879 5301 97%
c i  0.04  4 66 1   9  337  205 74% 2 15879 5298 97%
c i  0.04  4 66 1   9  339  206 74% 2 15879 5295 97%
c i  0.04  4 66 1   9  341  207 74% 2 15879 5292 97%
c i  0.04  4 66 1   9  343  208 74% 2 15879 5289 97%
c i  0.04  4 66 1   9  345  209 74% 2 15879 5286 97%
c i  0.04  4 66 1   9  347  210 75% 2 15879 5283 97%
c i  0.04  4 66 1   9  349  211 75% 2 15879 5280 97%
c i  0.04  4 66 1   9  351  212 75% 2 15879 5277 97%
c i  0.04  4 66 1   9  353  213 75% 2 15879 5274 97%
c i  0.05  4 66 1  14  389  240 75% 3 15879 5271 97%
c i  0.05  4 66 1  15  391  241 75% 3 15879 5251 96%
c i  0.06  4 65 1  40  499  336 75% 3 15879 5248 96%
c i  0.07  4 62 1  53  551  382 72% 4 15879 5245 96%
c i  0.07  4 62 1  54  553  383 72% 4 15879 5242 96%
c i  0.08  4 58 1  81  705  531 71% 4 15879 5239 96%
c 
c  seconds  reductions  redundant  irredundant
c         MB    restarts       trail     variables
c          level   conflicts       glue       remaining
c 
c i  0.08  4 58 1  82  708  533 70% 4 15879 5236 96%
c i  0.08  4 58 1  83  710  534 70% 4 15879 5233 96%
c i  0.08  4 57 1  83  712  535 70% 4 15879 5230 96%
c i  0.08  4 57 1  83  714  536 70% 4 15879 5227 96%
c i  0.08  4 57 1  83  716  537 70% 4 15879 5224 96%
c i  0.08  4 57 1  83  718  538 69% 4 15879 5221 96%
c i  0.08  4 57 1  83  720  539 69% 4 15879 5218 96%
c i  0.08  4 57 1  83  722  540 69% 4 15879 5162 95%
c -  0.11  4 56 2 119  901  452 65% 4 15112 5162 95%
c }  0.12  4 54 2 145 1000  543 65% 5 15112 5162 95%
c [  0.12  4  0 2 145 1000  543  0% 0 15112 5162 95%
c O  0.12  4 55 2 145 1003  546 68% 8 15112 5162 95%
c -  0.26  5 31 3 145 1801 1168 78% 13 15112 5162 95%
c ]  0.48  5 33 3 146 3000 2317 80% 15 15112 5162 95%
c {  0.48  5 54 3 146 3000 2317 65% 5 15112 5162 95%
c -  0.48  5 54 4 147 3001 1766 65% 5 15112 5162 95%
c F  0.48  5 54 4 148 3005 1769 65% 5 15112 5162 95%
c s  0.50  6 53 4 175 3109 1857 64% 5 15112 5162 95%
c v  0.51  6 53 4 175 3109 1857 64% 5 14957 5162 95%
c w  0.52  6 53 4 175 3109 1855 64% 5 14957 5116 94%
c 
c  seconds  reductions  redundant  irredundant
c         MB    restarts       trail     variables
c          level   conflicts       glue       remaining
c 
c t  0.53  6 53 4 175 3109 1855 64% 5 14876 5116 94%
c e  0.56  6 53 4 175 3109   98 64% 5 7873 1538 28%
c s  0.56  6 53 4 175 3109   96 64% 5 7865 1538 28%
c e  0.57  6 53 4 175 3109   96 64% 5 7860 1537 28%
c -  0.66  5 49 5 469 4504 1303 64% 8 7860 1537 28%
c d  0.69  5 48 5 573 5001 1752 64% 9 7858 1536 28%
c 3  0.69  5 48 5 573 5001 1961 64% 9 7858 1536 28%
c 2  0.70  5 48 5 573 5001 1962 64% 9 7857 1536 28%
c p  0.70  5 48 5 573 5001 3303 64% 9 7857 1534 28%
c d  0.70  6 48 5 573 5001 3256 64% 9 7851 1518 28%
c #  0.74  6 51 5 618 6006 4182 59% 9 7851 1518 28%
c -  0.76  6 50 6 635 6305 2986 58% 9 7851 1518 28%
c }  0.78  6 47 6 635 7000 3628 55% 9 7851 1518 28%
c [  0.78  6 33 6 635 7000 3628 283% 15 7851 1518 28%
c -  0.91  7 33 7 636 8406 3731 204% 18 7851 1518 28%
c I  1.03  7 38 7 637 10007 5285 169% 22 7851 1518 28%
c -  1.07  7 40 8 638 10807 4417 158% 23 7851 1518 28%
c s  1.15  7 43 8 639 12528 5934 142% 25 7827 1518 28%
c v  1.16  7 43 8 639 12528 5934 142% 25 7820 1518 28%
c w  1.16  7 43 8 639 12528 5931 142% 25 7820 1518 28%
c 
c  seconds  reductions   redundant   irredundant
c         MB    restarts        trail      variables
c          level    conflicts        glue       remaining
c 
c t  1.17  7 43 8 639 12528 5918 142% 25 7689 1518 28%
c e  1.17  7 43 8 639 12528 5911 142% 25 7688 1512 28%
c s  1.17  7 43 8 639 12528 5903 142% 25 7686 1512 28%
c -  1.23  6 43 9 640 13507 4486 136% 26 7686 1512 28%
c ]  1.33  6 42 9 640 15000 5765 129% 26 7686 1512 28%
c {  1.33  6 47 9 640 15000 5765 55% 9 7686 1512 28%
c d  1.34  6 47 9 640 15004 5764 55% 9 7686 1511 28%
c 3  1.34  6 47 9 640 15004 5825 55% 9 7686 1511 28%
c 2  1.34  6 47 9 640 15004 5840 55% 9 7684 1511 28%
c p  1.34  6 47 9 640 15004 6738 55% 9 7684 1511 28%
c d  1.34  6 47 9 640 15004 6724 55% 9 7684 1504 28%
c B  1.35  6 47 9 641 15009 6729 55% 9 7684 1504 28%
c -  1.41  7 41 10 739 16508 5043 49% 8 7684 1504 28%
c -  1.65  7 41 11 1238 19816 6080 56% 10 7684 1504 28%
c W  1.74  7 41 11 1387 21010 7189 57% 10 7684 1504 28%
c -  1.86  7 37 12 1494 23417 7194 53% 10 7684 1504 28%
c s  1.98  7 35 12 1565 26603 9819 50% 9 7668 1504 28%
c v  1.99  7 35 12 1565 26603 9819 50% 9 7654 1504 28%
c w  2.00  7 35 12 1565 26603 9807 50% 9 7654 1504 28%
c t  2.00  7 35 12 1565 26603 9805 50% 9 7640 1504 28%
c 
c  seconds  reductions     redundant irredundant
c         MB     restarts         trail    variables
c          level      conflicts       glue      remaining
c 
c s  2.01  7 35 12 1565 26603 9750 50% 9 7640 1504 28%
c ^  2.02  7 35 12 1565 26603 9750 50% 9 7640 1504 28%
c -  2.05  7 34 13 1565 27318 7846 49% 9 7640 1504 28%
c F  2.07  7 33 13 1565 28012 8477 49% 9 7640 1504 28%
c d  2.20  7 34 13 1777 30005 10329 50% 9 7640 1496 27%
c 3  2.21  7 34 13 1777 30005 10463 50% 9 7640 1496 27%
c 2  2.21  7 34 13 1777 30005 10490 50% 9 7629 1496 27%
c p  2.21  7 34 13 1777 30005 11288 50% 9 7629 1496 27%
c d  2.21  7 34 13 1777 30005 11276 50% 9 7629 1490 27%
c }  2.31  7 34 13 1985 31000 12200 51% 9 7629 1490 27%
c [  2.31  7 42 13 1985 31000 12200 129% 26 7629 1490 27%
c -  2.34  7 41 14 1985 31520 9876 125% 25 7629 1490 27%
c B  2.67  7 41 14 1988 36013 14117 109% 24 7629 1490 27%
c -  2.67  8 41 15 1988 36020 10312 108% 24 7629 1490 27%
c -  3.04  7 44 16 1991 40821 10298 102% 24 7629 1490 27%
c W  3.39  7 41 16 1992 45014 14342 100% 23 7629 1490 27%
c s  3.43  7 41 16 1992 45362 14621 100% 23 7612 1490 27%
c v  3.44  7 41 16 1992 45362 14621 100% 23 7606 1490 27%
c w  3.45  7 41 16 1992 45362 14617 100% 23 7606 1490 27%
c t  3.45  7 41 16 1992 45362 14617 100% 23 7592 1490 27%
c 
c  seconds  reductions     redundant   irredundant
c         MB     restarts         trail      variables
c          level      conflicts        glue       remaining
c 
c e  3.46  7 41 16 1992 45362 9751 100% 23 7620 1450 27%
c s  3.46  7 41 16 1992 45362 9739 100% 23 7620 1450 27%
c -  3.51  8 41 17 1993 45921 7322 100% 23 7620 1450 27%
c d  3.79  8 39 17 1993 50005 11130 98% 22 7620 1448 27%
c 3  3.80  8 39 17 1993 50005 11249 98% 22 7620 1448 27%
c 3  3.80  8 39 17 1993 50005 11287 98% 22 7620 1448 27%
c 2  3.80  8 39 17 1993 50005 11287 98% 22 7615 1448 27%
c p  3.80  8 39 17 1993 50005 12084 98% 22 7615 1448 27%
c -  3.92 10 38 18 1993 51322 10358 97% 22 7615 1448 27%
c O  4.22 10 37 18 1994 55016 13703 96% 22 7615 1448 27%
c -  4.38  8 36 19 1996 57023 11638 95% 21 7615 1448 27%
c ]  4.91  8 35 19 2000 63001 17056 93% 21 7615 1448 27%
c {  4.91  8 34 19 2000 63001 17056 51% 9 7615 1448 27%
c -  4.92 10 34 20 2004 63024 12158 51% 9 7615 1448 27%
c B  5.23 10 35 20 2574 66018 14864 53% 10 7615 1448 27%
c s  5.51 10 35 20 2990 69300 17752 53% 10 7613 1448 27%
c v  5.52 10 35 20 2990 69300 17752 53% 10 7609 1448 27%
c w  5.53 10 35 20 2990 69300 17749 53% 10 7609 1448 27%
c t  5.53 10 35 20 2990 69300 17749 53% 10 7577 1448 27%
c s  5.56 10 35 20 2990 69300 17697 53% 10 7577 1448 27%
c 
c  seconds  reductions      redundant  irredundant
c         MB     restarts          trail     variables
c          level      conflicts        glue       remaining
c 
c ^  5.56 10 35 20 2990 69300 17697 53% 10 7577 1448 27%
c -  5.57  9 35 21 2990 69326 12653 53% 10 7577 1448 27%
c d  6.03  9 34 21 3580 75007 17787 53% 11 7577 1445 27%
c 3  6.03  9 34 21 3580 75007 17882 53% 11 7577 1445 27%
c 3  6.04  9 34 21 3580 75007 17912 53% 11 7577 1445 27%
c 2  6.04  9 34 21 3580 75007 17911 53% 11 7571 1445 27%
c p  6.04  9 34 21 3580 75007 18592 53% 11 7571 1445 27%
c d  6.04  9 34 21 3580 75007 18588 53% 11 7571 1443 26%
c -  6.13 11 35 22 3689 75926 14612 53% 11 7571 1443 26%
c W  6.36 11 35 22 3941 78021 16556 55% 11 7571 1443 26%
c -  6.81 13 35 23 4505 82829 16390 55% 11 7571 1443 26%
c -  7.32 13 35 24 4929 90029 17823 56% 11 7571 1443 26%
c #  7.35 13 34 24 4929 91022 18675 56% 11 7571 1443 26%
c -  7.95 13 34 25 5440 97537 19153 57% 11 7571 1443 26%
c s  8.02 13 34 25 5532 97952 19314 57% 11 7567 1443 26%
c v  8.04 13 34 25 5532 97952 19314 57% 11 7563 1443 26%
c w  8.05 13 34 25 5532 97952 19308 57% 11 7563 1443 26%
c t  8.05 13 34 25 5532 97952 19308 57% 11 7557 1443 26%
c e  8.06 13 34 25 5532 97952 18050 57% 11 7583 1430 26%
c s  8.08 13 34 25 5532 97952 17966 57% 11 7581 1430 26%
c 
c  seconds  reductions       redundant  irredundant
c         MB     restarts           trail     variables
c          level      conflicts         glue       remaining
c 
c d  8.61 13 34 25 5729 105007 24472 56% 11 7581 1422 26%
c 3  8.61 13 34 25 5729 105007 24620 56% 11 7581 1422 26%
c d  8.62 13 34 25 5729 105007 24643 56% 11 7581 1421 26%
c 2  8.62 13 34 25 5729 105007 24641 56% 11 7571 1421 26%
c p  8.62 13 34 25 5729 105007 25194 56% 11 7571 1421 26%
c d  8.63 13 34 25 5729 105007 25190 56% 11 7571 1419 26%
c B  8.63 13 34 25 5729 105023 25203 56% 11 7571 1419 26%
c -  8.68 13 34 26 5795 105338 19642 56% 11 7571 1419 26%
c -  9.19 13 33 27 6163 113438 21021 55% 11 7571 1419 26%
c W  9.88 13 33 27 6956 120025 27122 56% 11 7571 1419 26%
c - 10.05 13 33 28 7104 121838 22984 56% 11 7571 1419 26%
c } 10.32 13 32 28 7104 127001 27590 54% 11 7571 1419 26%
c [ 10.32 13 35 28 7104 127001 27590 93% 21 7571 1419 26%
c - 10.51 14 33 29 7104 130538 23438 87% 20 7571 1419 26%
c s 10.61 14 33 29 7105 131642 24205 86% 19 7557 1419 26%
c v 10.63 14 33 29 7105 131642 24205 86% 19 7542 1419 26%
c w 10.65 14 33 29 7105 131642 24203 86% 19 7542 1419 26%
c t 10.65 14 33 29 7105 131642 24202 86% 19 7535 1419 26%
c s 10.67 14 33 29 7105 131642 24105 86% 19 7535 1419 26%
c ^ 10.68 14 33 29 7105 131642 24105 86% 19 7535 1419 26%
c 
c  seconds  reductions       redundant  irredundant
c         MB     restarts           trail     variables
c          level      conflicts         glue       remaining
c 
c B 11.07 14 34 29 7109 136029 27988 86% 20 7535 1419 26%
c - 11.42 14 34 30 7111 139540 23503 86% 21 7535 1419 26%
c d 11.47 14 34 30 7111 140008 23889 86% 21 7535 1417 26%
c 3 11.47 14 34 30 7111 140008 23986 86% 21 7535 1417 26%
c 2 11.48 14 34 30 7111 140008 24025 86% 21 7531 1417 26%
c p 11.48 14 34 30 7111 140008 24696 86% 21 7531 1417 26%
c d 11.48 14 34 30 7111 140008 24692 86% 21 7531 1415 26%
c - 12.45 11 33 31 7112 148840 22008 85% 21 7531 1415 26%
c W 12.96 11 33 31 7113 153030 24962 85% 21 7531 1415 26%
c - 13.55 11 32 32 7113 158440 21574 85% 21 7531 1415 26%
c - 14.63 11 31 33 7114 168340 22966 85% 22 7531 1415 26%
c s 14.84 11 31 33 7116 170183 24315 85% 22 7527 1415 26%
c w 14.87 11 31 33 7116 170183 24315 85% 22 7527 1415 26%
c t 14.87 11 31 33 7116 170183 24315 85% 22 7523 1415 26%
c e 14.89 11 31 33 7116 170183 11231 85% 22 8263 1173 22%
c s 14.90 11 31 33 7116 170183 11061 85% 22 7992 1173 22%
c I 14.97  9 31 33 7116 171033 11805 89% 22 7964 1173 22%
c - 15.27 11 31 34 7120 178540 14576 87% 22 7964 1173 22%
c 3 15.34 11 31 34 7120 180010 16288 87% 22 7964 1173 22%
c 3 15.34 11 31 34 7120 180010 16647 87% 22 7964 1173 22%
c 
c  seconds  reductions       redundant  irredundant
c         MB     restarts           trail     variables
c          level      conflicts         glue       remaining
c 
c 2 15.34 11 31 34 7120 180010 16592 87% 22 7964 1173 22%
c p 15.34 11 31 34 7120 180010 16923 87% 22 7964 1173 22%
c - 15.86 13 30 35 7127 189040 17936 87% 21 7964 1173 22%
c B 15.94 13 30 35 7127 190038 18768 87% 21 7964 1173 22%
c - 16.88 16 30 36 7128 199841 20317 88% 21 7964 1173 22%
c W 18.17 16 31 36 7135 210040 28344 88% 22 7964 1173 22%
c - 18.28 13 31 37 7135 210942 20975 87% 22 7964 1173 22%
c s 19.17 13 31 37 7141 219923 27646 87% 23 7809 1173 22%
c v 19.19 13 31 37 7141 219923 27646 87% 23 7531 1173 22%
c w 19.21 13 31 37 7141 219923 27645 87% 23 7531 1173 22%
c t 19.21 13 31 37 7141 219923 27645 87% 23 7508 1173 22%
c e 19.22 13 31 37 7141 219923 24163 87% 23 7534 1165 21%
c s 19.23 13 31 37 7141 219923 24046 87% 23 7527 1165 21%
c - 19.49 13 31 38 7142 222344 19013 87% 23 7527 1165 21%
c 2 19.80 13 31 38 7142 225012 21133 87% 23 7527 1164 21%
c p 19.80 13 31 38 7142 225012 21401 87% 23 7527 1164 21%
c O 20.38 13 31 38 7143 231042 25646 86% 23 7527 1164 21%
c - 20.74 13 31 39 7143 234047 20268 86% 23 7527 1164 21%
c - 22.31 14 31 40 7144 246048 20856 84% 23 7527 1164 21%
c B 23.26 14 31 40 7145 253043 25993 84% 23 7527 1164 21%
c 
c  seconds  reductions       redundant  irredundant
c         MB     restarts           trail     variables
c          level      conflicts         glue       remaining
c 
c ] 23.49 14 31 40 7145 255001 27181 84% 23 7527 1164 21%
c { 23.49 14 32 40 7145 255001 27181 71% 11 7527 1164 21%
c - 23.75 16 32 41 7414 258349 21937 70% 11 7527 1164 21%
c i 24.46 16 30 41 7973 269591 31302 67% 11 7527 1163 21%
c - 24.59 16 30 42 8159 270951 24032 66% 11 7522 1163 21%
c s 24.97 16 30 42 8717 273758 26320 67% 11 7516 1163 21%
c v 24.99 16 30 42 8717 273758 26320 67% 11 7507 1163 21%
c w 25.02 16 30 42 8717 273758 26308 67% 11 7507 1163 21%
c t 25.02 16 30 42 8717 273758 26308 67% 11 7504 1163 21%
c s 25.07 16 30 42 8717 273758 26131 67% 11 7504 1163 21%
c ^ 25.08 16 30 42 8717 273758 26131 67% 11 7504 1163 21%
c p 25.18 16 30 42 8741 275012 27852 67% 11 7504 1162 21%
c F 25.33 16 30 42 8999 276046 28789 67% 11 7504 1162 21%
c - 26.03 16 31 43 9805 283852 28335 66% 11 7499 1162 21%
c - 27.15 17 30 44 10749 297052 30965 63% 11 7499 1162 21%
c B 27.25 17 30 44 10749 300047 33365 62% 11 7499 1162 21%
c - 28.26 17 30 45 11686 310553 33214 62% 11 7499 1162 21%
c - 29.38 17 30 46 12455 324353 35720 61% 11 7499 1162 21%
c W 29.55 17 30 46 12518 325049 36324 61% 11 7499 1162 21%
c 3 29.90 17 30 46 12777 330013 40446 60% 11 7499 1161 21%
c 
c  seconds  reductions        redundant  irredundant
c         MB      restarts           trail     variables
c          level       conflicts         glue       remaining
c 
c 2 29.90 17 30 46 12777 330013 40480 60% 11 7499 1160 21%
c p 29.91 17 30 46 12777 330013 40656 60% 11 7499 1160 21%
c s 30.35 17 30 46 13310 332935 42638 60% 11 7499 1160 21%
c v 30.37 17 30 46 13310 332935 42638 60% 11 7494 1160 21%
c w 30.40 17 30 46 13310 332935 42601 60% 11 7494 1160 21%
c t 30.40 17 30 46 13310 332935 42599 60% 11 7494 1160 21%
c e 30.42 17 30 46 13310 332935 32666 60% 11 8057 1043 19%
c s 30.47 17 30 46 13310 332935 32069 60% 11 7996 1043 19%
c e 30.48 17 30 46 13310 332935 32033 60% 11 8001 1042 19%
c - 30.70 17 30 47 13313 338453 29659 30% 11 8001 1042 19%
c # 31.58 17 30 47 14110 351050 40661 42% 11 8001 1042 19%
c - 31.85 18 30 48 14507 352853 34860 46% 11 8001 1042 19%
c - 33.04 18 30 49 15653 367554 37916 51% 11 8001 1042 19%
c B 33.95 18 30 49 16746 378051 46891 51% 11 8001 1042 19%
c - 34.41 18 30 50 17289 382554 40429 53% 11 8001 1042 19%
c 3 35.15 18 30 50 18126 390013 46955 53% 12 8001 1039 19%
c 3 35.15 18 30 50 18126 390013 47010 53% 12 8001 1039 19%
c 2 35.16 18 30 50 18126 390013 47002 53% 12 8001 1039 19%
c p 35.16 18 30 50 18126 390013 47142 53% 12 8001 1039 19%
c - 35.62 21 30 51 18291 397855 42639 51% 11 8001 1039 19%
c 
c  seconds  reductions        redundant  irredundant
c         MB      restarts           trail     variables
c          level       conflicts         glue       remaining
c 
c s 36.05 21 30 51 18597 403515 46483 50% 11 7943 1039 19%
c v 36.07 21 30 51 18597 403515 46483 50% 11 7502 1039 19%
c w 36.11 21 30 51 18597 403515 46451 50% 11 7502 1039 19%
c t 36.11 21 30 51 18597 403515 46451 50% 11 7480 1039 19%
c e 36.12 21 30 51 18597 403515 37646 50% 11 7847 981 18%
c s 36.18 21 30 51 18597 403515 36973 50% 11 7739 981 18%
c W 36.54 21 30 51 18770 406052 39080 50% 11 7726 981 18%
c - 36.90 18 30 52 18819 413456 36562 48% 11 7726 981 18%
c - 38.26 18 30 53 20597 429359 41371 49% 11 7726 981 18%
c F 38.75 18 30 53 20786 435067 46690 50% 11 7726 981 18%
c - 39.74 22 30 54 21799 445561 44702 50% 11 7726 981 18%
c 3 40.30 22 29 54 22223 455013 52411 48% 11 7725 979 18%
c 3 40.31 22 29 54 22223 455013 52649 48% 11 7725 979 18%
c d 40.31 22 29 54 22223 455013 52635 48% 11 7725 978 18%
c 2 40.31 22 29 54 22223 455013 52620 48% 11 7725 978 18%
c p 40.32 22 29 54 22223 455013 52752 48% 11 7725 978 18%
c - 40.71 18 28 55 22295 462061 45744 47% 11 7725 978 18%
c B 40.84 18 28 55 22295 465069 48405 46% 11 7725 978 18%
c - 42.22 22 28 56 23577 478862 49418 47% 11 7725 978 18%
c s 42.53 22 29 56 23577 480928 50200 48% 11 7656 978 18%
c 
c  seconds  reductions        redundant  irredundant
c         MB      restarts           trail     variables
c          level       conflicts         glue      remaining
c 
c v 42.55 22 29 56 23577 480928 50200 48% 11 7591 978 18%
c w 42.58 22 29 56 23577 480928 50152 48% 11 7591 977 18%
c t 42.58 22 29 56 23577 480928 50152 48% 11 7589 977 18%
c e 42.59 22 29 56 23577 480928 50149 48% 11 7583 976 18%
c s 42.66 22 29 56 23577 480928 49605 48% 11 7581 976 18%
c i 42.94 22 28 56 23748 486563 54170 46% 11 7581 975 18%
c - 43.89 18 28 57 24568 495965 50067 47% 11 7575 975 18%
c W 44.11 18 28 57 24568 496070 50164 47% 11 7575 975 18%
c } 45.24 18 27 57 25068 511001 63535 45% 11 7575 975 18%
c [ 45.24 18 31 57 25068 511001 63535 94% 23 7575 975 18%
c - 45.35 21 30 58 25068 513365 51152 91% 22 7575 975 18%
c 3 46.83 21 30 58 25068 525013 61335 86% 22 7575 974 18%
c p 46.85 21 30 58 25068 525013 61517 86% 22 7575 974 18%
c W 47.57 21 30 58 25068 528072 64370 86% 22 7575 974 18%
c - 47.86 16 30 59 25068 531068 51932 85% 22 7575 974 18%
c - 49.43 17 31 60 25075 549068 50238 83% 22 7575 974 18%
c I 50.39 17 31 60 25082 561074 59523 81% 22 7575 974 18%
c s 50.56 18 30 60 25082 563737 61375 81% 22 7571 974 18%
c v 50.58 18 30 60 25082 563737 61375 81% 22 7569 974 18%
c w 50.62 18 30 60 25082 563737 61366 81% 22 7569 974 18%
c 
c  seconds  reductions        redundant  irredundant
c         MB      restarts           trail     variables
c          level       conflicts         glue      remaining
c 
c s 50.70 18 30 60 25082 563737 61061 81% 22 7569 974 18%
c - 50.93 17 30 61 25083 567368 47318 80% 22 7569 974 18%
c - 52.17 21 30 62 25091 585969 45619 76% 22 7569 974 18%
c B 52.82 21 30 62 25097 595076 53036 74% 22 7569 974 18%
c 3 53.05 21 30 62 25098 600013 57416 73% 22 7569 973 18%
c 3 53.05 21 30 62 25098 600013 57459 73% 22 7569 973 18%
c p 53.06 21 30 62 25098 600013 57679 73% 22 7569 973 18%
c - 53.24 21 29 63 25098 604871 46885 73% 21 7569 973 18%
c - 53.98 21 28 64 25101 624072 45163 71% 20 7569 973 18%
c W 54.47 21 27 64 25105 630077 49002 70% 20 7569 973 18%
c - 55.73 25 28 65 25113 643575 46455 70% 21 7569 973 18%
c s 56.46 25 28 65 25114 652483 53717 70% 21 7563 973 18%
c v 56.49 25 28 65 25114 652483 53717 70% 21 7546 973 18%
c w 56.51 25 28 65 25114 652483 53712 70% 21 7546 973 18%
c e 56.52 25 28 65 25114 652483 53552 70% 21 7553 972 18%
c s 56.57 25 28 65 25114 652483 53446 70% 21 7546 972 18%
c - 57.45 25 29 66 25120 663376 48085 70% 21 7546 972 18%
c O 57.65 25 29 66 25121 666080 50642 70% 21 7546 972 18%
c d 58.75 25 29 66 25128 680013 62707 70% 21 7546 971 18%
c 2 58.76 25 29 66 25128 680013 62886 70% 21 7545 971 18%
c 
c  seconds  reductions        redundant  irredundant
c         MB      restarts           trail     variables
c          level       conflicts         glue      remaining
c 
c p 58.76 25 29 66 25128 680013 63118 70% 21 7545 971 18%
c - 59.09 25 29 67 25129 683477 49040 70% 21 7545 971 18%
c B 60.65 25 30 67 25130 703082 65994 69% 22 7545 971 18%
c - 60.73 18 30 68 25130 703880 49890 69% 22 7545 971 18%
c - 62.69 18 31 69 25131 724581 49617 71% 22 7545 971 18%
c W 64.59 18 32 69 25132 741085 63837 72% 23 7545 971 18%
c - 65.02 19 32 70 25132 745581 50950 72% 23 7545 971 18%
c s 65.25 20 32 70 25132 747097 52040 72% 23 7544 971 18%
c v 65.27 20 32 70 25132 747097 52040 72% 23 7533 971 18%
c w 65.31 20 32 70 25132 747097 52033 72% 23 7533 971 18%
c t 65.31 20 32 70 25132 747097 52032 72% 23 7532 971 18%
c s 65.37 20 32 70 25132 747097 51919 72% 23 7532 971 18%
c ^ 65.37 20 32 70 25132 747097 51919 72% 23 7532 971 18%
c d 66.97 20 32 70 25132 765016 66204 72% 23 7532 970 18%
c 3 66.97 20 32 70 25132 765016 66292 72% 23 7532 970 18%
c 2 66.98 20 32 70 25132 765016 66335 72% 23 7531 970 18%
c p 66.99 20 32 70 25132 765016 66556 72% 23 7531 970 18%
c - 67.17 19 32 71 25132 766883 50915 72% 23 7531 970 18%
c I 68.41 19 32 71 25132 780089 61075 72% 23 7531 970 18%
c - 69.20 25 32 72 25132 788484 52982 73% 23 7531 970 18%
c 
c  seconds  reductions        redundant  irredundant
c         MB      restarts           trail     variables
c          level       conflicts         glue      remaining
c 
c - 71.30 26 33 73 25137 810388 54991 74% 23 7531 970 18%
c B 72.11 26 33 73 25142 820093 63331 73% 23 7531 970 18%
c - 73.29 26 33 74 25147 832589 55140 74% 23 7531 970 18%
c s 74.86 26 34 74 25154 847586 68254 75% 24 7523 970 18%
c w 74.93 26 34 74 25154 847586 68253 75% 24 7523 970 18%
c e 74.95 26 34 74 25154 847586 34114 75% 24 8395 896 16%
c s 75.01 26 34 74 25154 847586 33938 75% 24 8155 896 16%
c e 75.02 19 34 74 25154 847586 33813 75% 24 8179 894 16%
c 3 75.59 20 34 74 25158 855017 40465 80% 24 8179 894 16%
c 3 75.59 20 34 74 25158 855017 40533 80% 24 8179 894 16%
c 2 75.59 20 34 74 25158 855017 40525 80% 24 8179 894 16%
c p 75.60 20 34 74 25158 855017 40702 80% 24 8179 893 16%
c - 75.62 23 34 75 25158 855089 31815 80% 24 8173 893 16%
c W 76.58 23 34 75 25161 861095 36654 83% 24 8173 893 16%
c - 77.80 23 34 76 25163 877889 42129 80% 24 8173 893 16%
c - 79.68 26 34 77 25171 900989 45969 78% 24 8173 893 16%
c O 79.84 26 34 77 25173 903098 47708 78% 24 8173 893 16%
c - 81.36 32 33 78 25181 924390 47943 76% 24 8173 893 16%
c B 83.07 32 32 78 25193 946101 65820 75% 24 8173 893 16%
c - 83.28 32 32 79 25193 948090 48266 75% 24 8173 893 16%
c 
c  seconds  reductions        redundant  irredundant
c         MB      restarts           trail     variables
c          level       conflicts         glue      remaining
c 
c 3 83.45 32 32 79 25193 950018 49895 75% 24 8173 893 16%
c p 83.46 32 32 79 25193 950018 50134 75% 24 8173 893 16%
c s 84.54 32 32 79 25194 962555 60062 74% 24 8084 893 16%
c v 84.57 32 32 79 25194 962555 60062 74% 24 7976 893 16%
c w 84.61 32 32 79 25194 962555 60060 74% 24 7976 893 16%
c t 84.61 32 32 79 25194 962555 60059 74% 24 7961 893 16%
c e 84.62 32 32 79 25194 962555 59926 74% 24 7986 891 16%
c s 84.71 32 32 79 25194 962555 59808 74% 24 7976 891 16%
c - 85.53 32 32 80 25195 972090 47625 74% 23 7976 891 16%
c W 87.44 32 32 80 25195 990103 63039 73% 24 7976 891 16%
c - 88.12 32 32 81 25195 996392 50447 74% 24 7976 891 16%
c - 90.35 32 31 82 25207 1020992 51059 73% 24 7976 891 16%
c ] 90.51 32 31 82 25208 1023003 52679 73% 24 7976 891 16%
c { 90.51 32 27 82 25208 1023003 52679 53% 11 7976 891 16%
c # 91.09 32 26 82 25597 1035104 62180 50% 11 7976 891 16%
c - 92.06 32 26 83 26375 1045893 51327 49% 11 7976 891 16%
c i 92.23 32 26 83 26646 1047658 52672 49% 11 7976 890 16%
c d 92.51 32 26 83 27001 1050018 54224 50% 11 7970 887 16%
c 3 92.51 32 26 83 27001 1050018 54425 50% 11 7970 887 16%
c 3 92.51 32 26 83 27001 1050018 54482 50% 11 7970 887 16%
c 
c  seconds  reductions         redundant  irredundant
c         MB      restarts            trail     variables
c          level        conflicts         glue      remaining
c 
c p 92.53 32 26 83 27001 1050018 54635 50% 11 7970 887 16%
c - 93.70 32 24 84 27653 1071096 54786 46% 10 7970 887 16%
c B 94.44 32 24 84 28496 1081105 62245 45% 10 7970 887 16%
c i 94.51 32 24 84 28563 1082281 63142 45% 10 7970 886 16%
c s 94.73 32 24 84 28641 1082718 59653 45% 10 7969 886 16%
c v 94.76 32 24 84 28641 1082718 59653 45% 10 7958 886 16%
c w 94.81 32 24 84 28641 1082718 59627 45% 10 7958 886 16%
c t 94.81 32 24 84 28641 1082718 59625 45% 10 7956 886 16%
c s 95.00 32 24 84 28641 1082718 58935 45% 10 7954 886 16%
c - 95.82 32 23 85 29246 1096597 55488 43% 10 7954 886 16%
c i 96.19 32 22 85 29247 1108289 61763 40% 10 7954 885 16%
c i 96.53 32 21 85 29494 1114285 65808 39% 10 7954 884 16%
c - 97.06 17 21 86 30101 1122397 49914 38% 10 7944 884 16%
c i 97.36 17 21 86 30436 1127891 54056 38% 10 7944 883 16%
c W 97.81 21 21 86 30485 1128106 53966 38% 10 7937 883 16%
c i 98.69 21 20 86 31111 1148404 66948 35% 9 7937 882 16%
c - 98.71 24 20 87 31113 1148497 50863 35% 9 7931 882 16%
c d 99.01 24 19 87 31393 1155020 55401 35% 9 7931 879 16%
c 3 99.01 24 19 87 31393 1155020 55619 35% 9 7931 879 16%
c 2 99.02 24 19 87 31393 1155020 55685 35% 9 7930 876 16%
c 
c  seconds  reductions         redundant irredundant
c         MB      restarts            trail    variables
c          level        conflicts         glue     remaining
c 
c p 99.03 24 19 87 31393 1155020 55796 35% 9 7930 873 16%
c i 99.56 24 18 87 31423 1170949 64618 33% 9 7930 872 16%
c - 99.87 24 18 88 31809 1174897 45711 33% 9 7893 872 16%
c F 99.92 24 18 88 31858 1176109 46768 33% 9 7893 872 16%
c i 99.97 24 18 88 31858 1178155 47896 33% 9 7893 871 16%
c - 100.93 24 17 89 32807 1201597 56832 33% 9 7630 871 16%
c s 101.27 24 17 89 32990 1209373 60937 32% 9 7627 871 16%
c v 101.29 24 17 89 32990 1209373 60937 32% 9 7618 871 16%
c w 101.33 24 17 89 32990 1209373 60893 32% 9 7618 869 16%
c t 101.33 24 17 89 32990 1209373 60891 32% 9 7618 869 16%
c e 101.35 24 17 89 32990 1209373 22847 32% 9 7806 828 15%
c s 101.38 24 17 89 32990 1209373 22568 32% 9 7742 828 15%
c e 101.39 24 17 89 32990 1209373 22442 32% 9 7740 827 15%
c B 101.89 24 17 89 33308 1225110 35651 32% 9 7740 827 15%
c - 102.02 24 17 90 33453 1228597 34995 32% 8 7740 827 15%
c - 102.97 24 17 91 34601 1255897 49456 32% 8 7740 827 15%
c d 103.26 24 16 91 34770 1265020 55935 31% 8 7740 822 15%
c 3 103.26 24 16 91 34770 1265020 56359 31% 8 7740 822 15%
c 2 103.27 24 16 91 34770 1265020 56410 31% 8 7738 820 15%
c p 103.27 24 16 91 34770 1265020 56427 31% 8 7738 819 15%
c 
c  seconds   reductions         redundant irredundant
c          MB      restarts            trail    variables
c           level        conflicts         glue     remaining
c 
c i 103.28 24 16 91 34770 1265278 56597 31% 8 7738 818 15%
c W 104.33 24 16 91 35507 1275111 39685 31% 8 7575 818 15%
c i 104.33 24 16 91 35507 1275239 39717 31% 8 7575 817 15%
c - 104.64 24 16 92 36061 1283498 39329 31% 8 7566 817 15%
c i 105.02 24 16 92 36643 1295757 47726 30% 8 7566 816 15%
c - 105.96 24 16 93 39190 1311398 39459 30% 8 7441 816 15%
c i 106.39 24 15 93 39990 1323854 46655 29% 8 7441 814 15%
c # 106.50 24 15 93 40311 1326113 48595 29% 8 7441 814 15%
c - 107.08 24 15 94 41768 1339598 40561 28% 8 7272 814 15%
c i 107.16 24 15 94 41768 1341810 41856 28% 8 7272 811 15%
c i 107.23 24 15 94 41787 1343297 42720 28% 8 7272 808 15%
c i 107.24 24 15 94 41787 1343696 42846 28% 8 7272 805 15%
c i 107.28 24 15 94 41787 1344745 43276 27% 8 7272 802 15%
c i 107.28 24 15 94 41787 1344803 43289 27% 8 7272 718 13%
c } 107.29 24 15 94 41787 1344806 14780  4% 8 5624 700 13%
c 0 107.29 24 15 94 41787 1344806 14780  4% 8 5624 700 13%
c 
c --- [ result ] -------------------------------------------------------------
c 
s UNSATISFIABLE
c 
c --- [ run-time profiling ] -------------------------------------------------
c 
c process time taken by individual solving procedures
c (percentage relative to process time for solving)
c 
c       103.87   96.83% search
c        58.72   54.74% stable
c        41.88   39.04% unstable
c         3.40    3.17% simplify
c         3.27    3.05% walk
c         1.88    1.76% subsume
c         0.84    0.78% vivify
c         0.25    0.23% elim
c         0.12    0.11% ternary
c         0.10    0.10% probe
c         0.01    0.01% parse
c         0.00    0.00% lucky
c   =================================
c       107.27   99.99% solve
c 
c last line shows process time for solving
c (percentage relative to total process time)
c 
c --- [ statistics ] ---------------------------------------------------------
c 
c chronological:            193660        14.40 %  of conflicts
c conflicts:               1344806     12536.26    per second
c decisions:               2792101     26027.93    per second
c eliminated:                 4186        76.84 %  of all variables
c fixed:                       477         8.76 %  of all variables
c learned:                 1321495        98.27 %  per conflict
c learned_lits:           76535558       100.00 %  learned literals
c minimized:                     0         0.00 %  learned literals
c shrunken:               21782647        28.46 %  learned literals
c minishrunken:           10333771        13.50 %  learned literals
c otfs:                      10705         0.80 %  of conflict
c propagations:          176565291         1.65 M  per second
c reduced:                  850130        63.22 %  per conflict
c rephased:                     51     26368.75    interval
c restarts:                  41787        32.18    interval
c stabilizing:                   5        50.70 %  of conflicts
c substituted:                  84         1.54 %  of all variables
c subsumed:                 234045        16.88 %  of all clauses
c strengthened:             115648         8.34 %  of all clauses
c ternary:                    6034         0.63 %  of resolved
c trail reuses:                  0         0.00 %  of incremental calls
c vivified:                   2493         0.18 %  of all clauses
c walked:                       16     84050.38    interval
c weakened:                  15905         2.61    average size
c 
c seconds are measured in process time for solving
c 
c --- [ resources ] ----------------------------------------------------------
c 
c total process time since initialization:       107.29    seconds
c total real time since initialization:          107.30    seconds
c maximum resident set size of process:           32.30    MB
c 
c --- [ shutting down ] ------------------------------------------------------
c 
c exit 20
